(set-logic QF_S)
(declare-fun var0 () String)
(assert (str.in.re var0 (re.++ (re.+ (re.* (str.to.re "000"))) (re.++ (re.* (re.* (str.to.re "1"))) (re.++ (re.union (re.+ (str.to.re "22")) (re.+ (str.to.re "333"))) (re.++ (re.+ (re.+ (str.to.re "44"))) (re.++ (re.+ (re.+ (str.to.re "555"))) (re.++ (re.* (re.union (str.to.re "66") (str.to.re "7"))) (re.++ (re.* (re.union (str.to.re "88") (str.to.re "999"))) (re.++ (re.* (re.union (str.to.re "a") (str.to.re "b"))) (re.++ (re.+ (re.union (str.to.re "cc") (str.to.re "d"))) (re.++ (re.+ (re.union (str.to.re "e") (str.to.re "f"))) (re.++ (re.union (re.* (str.to.re "ggg")) (re.* (str.to.re "hh"))) (re.++ (re.+ (re.union (str.to.re "i") (str.to.re "j"))) (re.++ (re.union (re.* (str.to.re "kk")) (re.* (str.to.re "ll"))) (re.++ (re.+ (re.+ (str.to.re "mm"))) (re.++ (re.+ (re.+ (str.to.re "nn"))) (re.++ (re.+ (re.+ (str.to.re "o"))) (re.++ (re.union (re.+ (str.to.re "p")) (re.+ (str.to.re "qq"))) (re.++ (re.union (re.union (str.to.re "r") (str.to.re "ss")) (re.union (str.to.re "t") (str.to.re "uuu"))) (re.++ (re.union (re.union (str.to.re "vv") (str.to.re "ww")) (re.union (str.to.re "xxx") (str.to.re "yy"))) (re.++ (re.union (re.+ (str.to.re "z")) (re.+ (str.to.re "AA"))) (re.++ (re.union (re.union (str.to.re "BB") (str.to.re "CC")) (re.union (str.to.re "DD") (str.to.re "E"))) (re.++ (re.+ (re.union (str.to.re "F") (str.to.re "G"))) (re.++ (re.* (re.+ (str.to.re "HH"))) (re.++ (re.union (re.* (str.to.re "I")) (re.* (str.to.re "JJJ"))) (re.++ (re.union (re.+ (str.to.re "KKK")) (re.+ (str.to.re "LL"))) (re.++ (re.+ (re.+ (str.to.re "MMM"))) (re.++ (re.+ (re.union (str.to.re "NN") (str.to.re "OO"))) (re.++ (re.+ (re.+ (str.to.re "P"))) (re.++ (re.+ (re.union (str.to.re "QQ") (str.to.re "RRR"))) (re.++ (re.union (re.+ (str.to.re "SS")) (re.+ (str.to.re "TTT"))) (re.++ (re.+ (re.union (str.to.re "UUU") (str.to.re "VVV"))) (re.++ (re.* (re.union (str.to.re "WWW") (str.to.re "X"))) (re.++ (re.* (re.union (str.to.re "YYY") (str.to.re "ZZZ"))) (re.++ (re.* (re.+ (str.to.re "!!"))) (re.++ (re.* (re.* (str.to.re """"))) (re.++ (re.union (re.+ (str.to.re "##")) (re.+ (str.to.re "$$"))) (re.++ (re.+ (re.+ (str.to.re "%"))) (re.++ (re.+ (re.union (str.to.re "&") (str.to.re "'''"))) (re.++ (re.union (re.+ (str.to.re "(((")) (re.+ (str.to.re ")))"))) (re.++ (re.+ (re.* (str.to.re "*"))) (re.++ (re.* (re.union (str.to.re "++") (str.to.re ",,,"))) (re.++ (re.union (re.+ (str.to.re "--")) (re.+ (str.to.re "."))) (re.++ (re.union (re.+ (str.to.re "///")) (re.+ (str.to.re ":::"))) (re.++ (re.union (re.+ (str.to.re ";;")) (re.+ (str.to.re "<<"))) (re.++ (re.+ (re.+ (str.to.re "=="))) (re.++ (re.* (re.+ (str.to.re ">"))) (re.++ (re.union (re.+ (str.to.re "?")) (re.+ (str.to.re "@@"))) (re.++ (re.union (re.+ (str.to.re "[[")) (re.+ (str.to.re "\\\\\\"))) (re.++ (re.* (re.+ (str.to.re "]]]"))) (re.++ (re.+ (re.union (str.to.re "^") (str.to.re "___"))) (re.++ (re.+ (re.* (str.to.re "``"))) (re.++ (re.* (re.* (str.to.re "{"))) (re.union (re.+ (str.to.re "|||")) (re.+ (str.to.re "}}}")))))))))))))))))))))))))))))))))))))))))))))))))))))))))
(check-sat)